c by Paul Purdom and Amr Sabry
c
c Circuit for product = 17 [True,False,False,False,True]
c Variables for output [msb,...,lsb]: [73,72,71,48,34,21,8]
c Variables for first input [msb,...,lsb]: [4,3,2,1]
c Variables for second input [msb,...,lsb]: [7,6,5]
c
c
p cnf 76 283
1 5 -8 0
1 -5 -8 0
-1 5 -8 0
-1 -5 8 0
2 5 -9 0
2 -5 -9 0
-2 5 -9 0
-2 -5 9 0
3 5 -10 0
3 -5 -10 0
-3 5 -10 0
-3 -5 10 0
4 5 -11 0
4 -5 -11 0
-4 5 -11 0
-4 -5 11 0
1 6 -12 0
1 -6 -12 0
-1 6 -12 0
-1 -6 12 0
2 6 -13 0
2 -6 -13 0
-2 6 -13 0
-2 -6 13 0
3 6 -14 0
3 -6 -14 0
-3 6 -14 0
-3 -6 14 0
4 6 -15 0
4 -6 -15 0
-4 6 -15 0
-4 -6 15 0
1 7 -16 0
1 -7 -16 0
-1 7 -16 0
-1 -7 16 0
2 7 -17 0
2 -7 -17 0
-2 7 -17 0
-2 -7 17 0
3 7 -18 0
3 -7 -18 0
-3 7 -18 0
-3 -7 18 0
4 7 -19 0
4 -7 -19 0
-4 7 -19 0
-4 -7 19 0
9 12 -20 0
9 -12 -20 0
-9 12 -20 0
-9 -12 20 0
9 12 -21 0
9 -12 21 0
-9 12 21 0
-9 -12 -21 0
13 16 -22 0
13 -16 -22 0
-13 16 -22 0
-13 -16 22 0
13 16 -23 0
13 -16 23 0
-13 16 23 0
-13 -16 -23 0
10 23 -24 0
10 -23 -24 0
-10 23 -24 0
-10 -23 24 0
10 23 -25 0
10 -23 25 0
-10 23 25 0
-10 -23 -25 0
22 24 -26 0
22 -24 26 0
-22 24 26 0
-22 -24 -26 0
14 17 -27 0
14 -17 -27 0
-14 17 -27 0
-14 -17 27 0
14 17 -28 0
14 -17 28 0
-14 17 28 0
-14 -17 -28 0
11 28 -29 0
11 -28 -29 0
-11 28 -29 0
-11 -28 29 0
11 28 -30 0
11 -28 30 0
-11 28 30 0
-11 -28 -30 0
27 29 -31 0
27 -29 31 0
-27 29 31 0
-27 -29 -31 0
15 18 -32 0
15 -18 -32 0
-15 18 -32 0
-15 -18 32 0
15 18 -33 0
15 -18 33 0
-15 18 33 0
-15 -18 -33 0
20 25 -34 0
20 -25 34 0
-20 25 34 0
-20 -25 -34 0
20 25 -35 0
20 -25 -35 0
-20 25 -35 0
-20 -25 35 0
20 25 -36 0
20 -25 36 0
-20 25 36 0
-20 -25 36 0
26 30 -37 0
26 -30 37 0
-26 30 37 0
-26 -30 -37 0
26 30 -38 0
26 -30 -38 0
-26 30 -38 0
-26 -30 38 0
26 30 -39 0
26 -30 39 0
-26 30 39 0
-26 -30 39 0
31 33 -40 0
31 -33 40 0
-31 33 40 0
-31 -33 -40 0
31 33 -41 0
31 -33 -41 0
-31 33 -41 0
-31 -33 41 0
31 33 -42 0
31 -33 42 0
-31 33 42 0
-31 -33 42 0
32 19 -43 0
32 -19 43 0
-32 19 43 0
-32 -19 -43 0
32 19 -44 0
32 -19 -44 0
-32 19 -44 0
-32 -19 44 0
32 19 -45 0
32 -19 45 0
-32 19 45 0
-32 -19 45 0
8 21 -46 0
8 -21 46 0
-8 -21 -46 0
-8 21 46 0
21 8 -47 0
21 -8 -47 0
-21 8 -47 0
-21 -8 47 0
35 37 -48 0
35 -37 48 0
-35 -37 -48 0
-35 37 48 0
36 37 -49 0
36 -37 49 0
-36 -37 -49 0
-36 37 49 0
38 39 -50 0
38 -39 50 0
-38 39 50 0
-38 -39 50 0
38 36 -51 0
38 -36 51 0
-38 36 51 0
-38 -36 51 0
50 51 -52 0
50 -51 -52 0
-50 51 -52 0
-50 -51 52 0
38 39 -53 0
38 -39 53 0
-38 39 53 0
-38 -39 53 0
38 35 -54 0
38 -35 54 0
-38 35 54 0
-38 -35 54 0
53 54 -55 0
53 -54 -55 0
-53 54 -55 0
-53 -54 55 0
41 43 -56 0
41 -43 56 0
-41 -43 -56 0
-41 43 56 0
42 43 -57 0
42 -43 57 0
-42 -43 -57 0
-42 43 57 0
44 45 -58 0
44 -45 58 0
-44 45 58 0
-44 -45 58 0
44 42 -59 0
44 -42 59 0
-44 42 59 0
-44 -42 59 0
58 59 -60 0
58 -59 -60 0
-58 59 -60 0
-58 -59 60 0
44 45 -61 0
44 -45 61 0
-44 45 61 0
-44 -45 61 0
44 41 -62 0
44 -41 62 0
-44 41 62 0
-44 -41 62 0
61 62 -63 0
61 -62 -63 0
-61 62 -63 0
-61 -62 63 0
47 34 -64 0
47 -34 64 0
-47 -34 -64 0
-47 34 64 0
47 48 -65 0
47 -48 65 0
-47 49 -65 0
-47 -49 65 0
55 52 -66 0
55 -52 66 0
-55 52 66 0
-55 -52 66 0
55 47 -67 0
55 -47 67 0
-55 47 67 0
-55 -47 67 0
66 67 -68 0
66 -67 -68 0
-66 67 -68 0
-66 -67 68 0
55 52 -69 0
55 -52 69 0
-55 52 69 0
-55 -52 69 0
69 55 -70 0
69 -55 -70 0
-69 55 -70 0
-69 -55 70 0
70 40 -71 0
70 -40 71 0
-70 -40 -71 0
-70 40 71 0
70 56 -72 0
70 -56 72 0
-70 57 -72 0
-70 -57 72 0
70 63 -73 0
70 -63 73 0
-70 60 -73 0
-70 -60 73 0
68 40 -74 0
68 -40 74 0
-68 -40 -74 0
-68 40 74 0
68 56 -75 0
68 -56 75 0
-68 57 -75 0
-68 -57 75 0
68 63 -76 0
68 -63 76 0
-68 60 -76 0
-68 -60 76 0
8 0
-21 0
-34 0
-48 0
71 0
-72 0
-73 0


